
Gurobi 11.0.3 (mac64[arm], gurobi_cl) logging started Mon Nov  4 11:29:42 2024

Set parameter TimeLimit to value 600
Set parameter NoRelHeurTime to value 600
Set parameter LogFile to value "gurobi.log"
Using license file /Users/sakai/gurobi.lic
Restricted license - for non-production use only - expires 2025-11-24

Gurobi Optimizer version 11.0.3 build v11.0.3rc0 (mac64[arm] - Darwin 22.6.0 22H123)
Copyright (c) 2024, Gurobi Optimization, LLC

Read LP format model from file ../../../miplib2024_submission/instances.20241102/bnn_mnist_rot_8_label1_adversarial_norm_1.lp
Reading time = 0.10 seconds
: 1104 rows, 1295 columns, 398390 nonzeros

CPU model: Apple M1
Thread count: 8 physical cores, 8 logical processors, using up to 8 threads

Optimize a model with 1104 rows, 1295 columns and 398390 nonzeros
Model fingerprint: 0xb755950e
Variable types: 1 continuous, 1294 integer (1294 binary)
Coefficient statistics:
  Matrix range     [1e+00, 2e+03]
  Objective range  [1e+00, 1e+04]
  Bounds range     [1e+00, 1e+00]
  RHS range        [1e+00, 2e+03]
Presolve removed 32 rows and 19 columns
Presolve time: 1.16s
Presolved: 1072 rows, 1276 columns, 391998 nonzeros
Variable types: 0 continuous, 1276 integer (1276 binary)
Starting NoRel heuristic
Found phase-1 solution: relaxation 244
Found phase-1 solution: relaxation 240
Found phase-1 solution: relaxation 221
Found phase-1 solution: relaxation 193
Found phase-1 solution: relaxation 105
Found phase-1 solution: relaxation 77
Found phase-1 solution: relaxation 72
Found phase-1 solution: relaxation 52
Found phase-1 solution: relaxation 0
Found heuristic solution: objective 8771.0000000
Transition to phase 2
Found heuristic solution: objective 7974.0000000
Found heuristic solution: objective 7911.0000000
Found heuristic solution: objective 6889.0000000
Found heuristic solution: objective 6670.0000000
Found heuristic solution: objective 5932.0000000
Found heuristic solution: objective 5754.0000000
Found heuristic solution: objective 5497.0000000
Found heuristic solution: objective 5334.0000000
Found heuristic solution: objective 5072.0000000
Elapsed time for NoRel heuristic: 6s (best bound 0)
Found heuristic solution: objective 5003.0000000
Found heuristic solution: objective 4895.0000000
Found heuristic solution: objective 4558.0000000
Found heuristic solution: objective 4083.0000000
Found heuristic solution: objective 4043.0000000
Found heuristic solution: objective 3836.0000000
Found heuristic solution: objective 3772.0000000
Elapsed time for NoRel heuristic: 13s (best bound 0)
Elapsed time for NoRel heuristic: 22s (best bound 0)
Found heuristic solution: objective 3637.0000000
Found heuristic solution: objective 3303.0000000
Elapsed time for NoRel heuristic: 27s (best bound 0)
Found heuristic solution: objective 2837.0000000
Elapsed time for NoRel heuristic: 35s (best bound 0)
Found heuristic solution: objective 2644.0000000
Elapsed time for NoRel heuristic: 55s (best bound 0)
Found heuristic solution: objective 2445.0000000
Found heuristic solution: objective 2439.0000000
Found heuristic solution: objective 2414.0000000
Found heuristic solution: objective 2308.0000000
Elapsed time for NoRel heuristic: 64s (best bound 0)
Elapsed time for NoRel heuristic: 71s (best bound 0)
Found heuristic solution: objective 2168.0000000
Elapsed time for NoRel heuristic: 89s (best bound 0)
Found heuristic solution: objective 2147.0000000
Elapsed time for NoRel heuristic: 95s (best bound 0)
Found heuristic solution: objective 1795.0000000
Elapsed time for NoRel heuristic: 106s (best bound 0)
Found heuristic solution: objective 1784.0000000
Found heuristic solution: objective 1740.0000000
Found heuristic solution: objective 1509.0000000
Elapsed time for NoRel heuristic: 114s (best bound 0)
Found heuristic solution: objective 1332.0000000
Found heuristic solution: objective 1283.0000000
Found heuristic solution: objective 862.0000000
Elapsed time for NoRel heuristic: 122s (best bound 0)
Found heuristic solution: objective 855.0000000
Found heuristic solution: objective 725.0000000
Elapsed time for NoRel heuristic: 127s (best bound 0)
Found heuristic solution: objective 694.0000000
Found heuristic solution: objective 645.0000000
Found heuristic solution: objective 591.0000000
Found heuristic solution: objective 385.0000000
Elapsed time for NoRel heuristic: 134s (best bound 0)
Found heuristic solution: objective 190.0000000
Elapsed time for NoRel heuristic: 140s (best bound 0)
Found heuristic solution: objective 187.0000000
Found heuristic solution: objective 172.0000000
Found heuristic solution: objective 136.0000000
Found heuristic solution: objective 111.0000000
Elapsed time for NoRel heuristic: 147s (best bound 0)
Found heuristic solution: objective 79.0000000
Found heuristic solution: objective 62.0000000
Found heuristic solution: objective 57.0000000
Elapsed time for NoRel heuristic: 156s (best bound 0)
Found heuristic solution: objective 54.0000000
Found heuristic solution: objective 44.0000000
Found heuristic solution: objective 23.0000000
Found heuristic solution: objective 22.0000000
Found heuristic solution: objective 21.0000000
Found heuristic solution: objective 17.0000000
Elapsed time for NoRel heuristic: 163s (best bound 0)
Found heuristic solution: objective 15.0000000
Elapsed time for NoRel heuristic: 168s (best bound 0)
Found heuristic solution: objective 13.0000000
Found heuristic solution: objective 11.0000000
Elapsed time for NoRel heuristic: 175s (best bound 0)
Found heuristic solution: objective 10.0000000
Elapsed time for NoRel heuristic: 182s (best bound 0)
Found heuristic solution: objective 9.0000000
Elapsed time for NoRel heuristic: 198s (best bound 0)
Found heuristic solution: objective 7.0000000
Elapsed time for NoRel heuristic: 206s (best bound 0)
Elapsed time for NoRel heuristic: 216s (best bound 0)
Found heuristic solution: objective 5.0000000
Elapsed time for NoRel heuristic: 222s (best bound 0)
Elapsed time for NoRel heuristic: 230s (best bound 0)
Elapsed time for NoRel heuristic: 280s (best bound 0)
Elapsed time for NoRel heuristic: 300s (best bound 0)
Elapsed time for NoRel heuristic: 316s (best bound 0)
Elapsed time for NoRel heuristic: 338s (best bound 0)
Elapsed time for NoRel heuristic: 355s (best bound 0)
Elapsed time for NoRel heuristic: 379s (best bound 0)
Found heuristic solution: objective 4.0000000
Elapsed time for NoRel heuristic: 397s (best bound 0)
Elapsed time for NoRel heuristic: 402s (best bound 0)
Elapsed time for NoRel heuristic: 424s (best bound 0)
Elapsed time for NoRel heuristic: 446s (best bound 0)
Elapsed time for NoRel heuristic: 465s (best bound 0)
Elapsed time for NoRel heuristic: 487s (best bound 0)
Elapsed time for NoRel heuristic: 506s (best bound 0)
Elapsed time for NoRel heuristic: 530s (best bound 0)
Elapsed time for NoRel heuristic: 554s (best bound 0)
Elapsed time for NoRel heuristic: 580s (best bound 0)
Elapsed time for NoRel heuristic: 599s (best bound 0)
NoRel heuristic complete

Explored 0 nodes (0 simplex iterations) in 600.07 seconds (482.17 work units)
Thread count was 8 (of 8 available processors)

Solution count 10: 4 5 7 ... 21

Time limit reached
Best objective 4.000000000000e+00, best bound 0.000000000000e+00, gap 100.0000%

Wrote result file 'bnn_mnist_rot_8_label1_adversarial_norm_1.sol'

